56995
1,123,143,263,462,640,732,757,940,967,1032,1074,1134,1468,1493,1552,1750,1773,1799,1812,1873,1890,1911,2075,2370,2556,2696,2743,2842,2867,2909,2953,2978,3035,3054,3092,3138,3175,3271,3364,3425,3435,3448,3499,3501,3559,3568,3577,3612,3669,3755,3826,3874,3941,4023,4037,4065,4238,4357,4590,4596,4810,5051,5070,5120,5269,5513,5532,6119,6184,6275,6308,6420,6574,6698,6747,6823,6993,7010,7181,7287,7344,7415,7536,7545,7630,7646,7794,8028,8126,8311,8377,8557,8643,8816,8847,8957,9199,9204,9365,9435,9436,9446,9842,9876,9892,9914,9970
